NAME          ClpDefau
ROWS
 N  OBJROW
 L  R_132_0
 L  R_132_1
 L  R_132_2
 L  R_132_3
 L  R_132_4
 L  R_132_5
 L  R_132_6
 L  R_132_7
 L  R_132_8
 L  R_132_9
 L  R_132_10
 L  R_132_11
 L  R_132_12
 L  R_132_13
 L  R_132_14
 L  R_132_15
COLUMNS
    x_0       OBJROW     -1.           R_132_1   88.         
    x_0       R_132_2   56.         
    x_1       OBJROW     -2.           R_132_1   23.         
    x_1       R_132_3   42.            R_132_4   66.         
    x_1       R_132_8   58.         
    x_2       OBJROW     -2.           R_132_1   97.         
    x_3       OBJROW     -6.        
    x_4       OBJROW     -3.           R_132_7   25.         
    x_4       R_132_9   74.            R_132_14  67.         
    x_4       R_132_15  35.         
    x_5       OBJROW     -5.           R_132_5   47.         
    x_5       R_132_8   15.            R_132_10  94.         
    x_5       R_132_13  21.         
    x_6       OBJROW     -5.           R_132_0   76.         
    x_6       R_132_1   32.            R_132_2   5.          
    x_6       R_132_3   79.            R_132_11  34.         
    x_7       OBJROW     -10.          R_132_3   58.         
RHS
    RHS       R_132_0   84.            R_132_1   101.        
    RHS       R_132_2   81.            R_132_3   88.         
    RHS       R_132_4   81.            R_132_5   84.         
    RHS       R_132_6   85.            R_132_7   85.         
    RHS       R_132_8   83.            R_132_9   94.         
    RHS       R_132_10  100.           R_132_11  87.         
    RHS       R_132_12  96.            R_132_13  102.        
    RHS       R_132_14  81.            R_132_15  87.         
BOUNDS
 UI BOUND     x_0       10.         
 UI BOUND     x_1       10.         
 UI BOUND     x_2       10.         
 UI BOUND     x_3       10.         
 UI BOUND     x_4       10.         
 UI BOUND     x_5       10.         
 UI BOUND     x_6       10.         
 UI BOUND     x_7       10.         
ENDATA
